
Gurobi 9.0.3 (win64, Java) logging started Tue Feb 23 18:25:55 2021


--------------------------------------------
Warning: your license will expire in 9 days
--------------------------------------------

Academic license - for non-commercial use only

Gurobi 9.0.3 (win64, Java) logging started Tue Feb 23 18:27:57 2021


--------------------------------------------
Warning: your license will expire in 9 days
--------------------------------------------

Academic license - for non-commercial use only

Gurobi 9.0.3 (win64, Java) logging started Tue Feb 23 18:28:41 2021


--------------------------------------------
Warning: your license will expire in 9 days
--------------------------------------------

Academic license - for non-commercial use only

Gurobi 9.0.3 (win64, Java) logging started Tue Feb 23 18:30:51 2021


--------------------------------------------
Warning: your license will expire in 9 days
--------------------------------------------

Academic license - for non-commercial use only

Gurobi 9.0.3 (win64, Java) logging started Tue Feb 23 18:32:33 2021


--------------------------------------------
Warning: your license will expire in 9 days
--------------------------------------------

Academic license - for non-commercial use only
